27      4       
10      10      10      10      
0       0       0       0       0       9       2       3       5       6       7       10      12      15      17      
10      1       1       1       0       5       4       8       13      23      26      
10      3       4       3       0       4       8       11      23      25      
3       2       2       3       1       4       11      14      20      22      
7       3       3       2       2       4       9       16      19      20      
7       2       1       4       2       6       18      19      20      21      22      23      
7       5       4       2       3       5       16      22      23      24      26      
6       1       4       3       1       4       16      19      20      22      
1       1       3       3       2       3       18      21      24      
6       1       3       3       3       3       18      21      25      
9       3       2       3       2       2       16      21      
10      3       1       2       1       1       13      
8       2       1       3       5       2       19      20      
6       3       3       1       3       2       19      21      
3       2       3       3       3       2       19      20      
2       1       2       0       4       1       18      
10      3       2       2       2       1       22      
8       6       2       5       3       1       27      
10      1       2       2       2       1       27      
2       2       3       3       2       1       27      
5       2       3       2       4       1       27      
5       4       0       2       3       1       27      
10      1       3       2       3       1       27      
5       3       6       2       2       1       27      
8       4       2       4       4       1       27      
9       3       1       2       3       1       27      
0       0       0       0       0       0       
